letting n =  10
letting blocks =  [[1, 2], [1, 3], [1, 7], [1, 8], [2, 3], [2, 5], [2, 6], [2, 7], [2, 9], [2, 10], [3, 2], [3, 5], [3, 8], [4, 1], [4, 6], [4, 7], [4, 8], [5, 2], [5, 4], [5, 5], [5, 6], [5, 8], [5, 9], [6, 5], [6, 7], [6, 8], [7, 1], [7, 2], [7, 4], [7, 5], [7, 6], [7, 10], [8, 1], [8, 2], [8, 5], [8, 6], [8, 7], [8, 10], [9, 3], [9, 4], [9, 6], [9, 7], [9, 8], [9, 9], [10, 4], [10, 10]]
